1563, 0, 0, 96, 1
1564, 0, 1, 69, 3
1565, 0, 2, 76, 0
1566, 0, 3, 53, 2
1567, 1, 0, 69, 2
1568, 1, 1, 54, 0
1569, 1, 2, 83, 3
1570, 1, 3, 30, 1
1571, 2, 0, 50, 1
1572, 2, 1, 39, 2
1573, 2, 2, 97, 0
1574, 2, 3, 88, 3
1575, 3, 0, 82, 1
1576, 3, 1, 69, 0
1577, 3, 2, 57, 3
1578, 3, 3, 49, 2
